
%FILE DATA:	Soccer Computational Problem for MiniZinc Models	%
%AUTHOR:	Jack Wall	%
%CONTACT:  	116397063@umail.ucc.ie			%
%LAST UPDATE:	01/29/2020, 10:18:06						%
%DESCRIPTION: 	-12 games played with 56 games left				%

n=8; %number of teams

%Games to play
games=[|4,7|7,2|1,4|1,3|6,7|6,2|6,3|2,4|4,1|8,7|3,5|1,8|8,2|4,5|8,4|6,5|8,1|5,3|2,8|3,2|6,1|4,8|1,7|3,8|2,6|8,5|5,6|5,2|8,6|3,1|7,3|5,1|2,5|7,1|4,3|4,2|7,4|8,3|5,7|2,7|1,2|1,6|3,7|5,4|3,6|3,4|7,8|4,6|6,8|1,5|7,5|7,6|2,3|2,1|6,4|5,8|];

%Initial points
iPoints=];

%POSITION CONSTRAINTS
% [|teamID, operator, position|...]
% operators index:
%  1 for =  operator
%  2 for >  operator
%  3 for >= operator
%  4 for <  operator
%  5 for <= operator
positionConstraints=[|5,4,2|8,4,3|];